3 
4  32 52 
5  13 26 43 59 
6  15 30 45 
7  00 15 30 45 
8  00 15 30 45 
9  01 16 31 46 
10  01 15 30 45 
11  00 15 30 45 
12  00 15 30 45 
13  00 15 30 45 
14  00 15 30 45 
15  00 15 30 45 
16  00 15 30 45 
17  00 15 30 45 
18  00 15 30 45 
19  00 15 30 45 
20  03 18 33 47 
21  03 18 33 48 
22  03 18 32 50 
23 
